
Gurobi 12.0.2 (win64) logging started Tue Nov 25 19:38:45 2025

Set parameter LogFile to value "C:\Ioana\_uni\honours\slp\algorithm\Main_files\results\paracetamol_respiration_improved\Task_003_Sample001_irr_gurobi.log"
Gurobi Optimizer version 12.0.2 build v12.0.2rc0 (win64 - Windows 11.0 (26100.2))

CPU model: Intel(R) Core(TM) Ultra 5 125H, instruction set [SSE2|AVX|AVX2]
Thread count: 14 physical cores, 18 logical processors, using up to 18 threads

Non-default parameters:
TimeLimit  2200

Optimize a model with 47236 rows, 34504 columns and 146714 nonzeros
Model fingerprint: 0xe690604d
Variable types: 17255 continuous, 17249 integer (17249 binary)
Coefficient statistics:
  Matrix range     [1e-04, 8e+04]
  Objective range  [1e-04, 9e-01]
  Bounds range     [1e+00, 1e+03]
  RHS range        [1e+00, 1e+00]
Presolve removed 30786 rows and 21551 columns
Presolve time: 0.32s
Presolved: 16450 rows, 12953 columns, 54677 nonzeros
Variable types: 6410 continuous, 6543 integer (6543 binary)

Root relaxation: objective 1.601192e-04, 384 iterations, 0.02 seconds (0.03 work units)

    Nodes    |    Current Node    |     Objective Bounds      |     Work
 Expl Unexpl |  Obj  Depth IntInf | Incumbent    BestBd   Gap | It/Node Time

     0     0    0.00016    0   12          -    0.00016      -     -    0s
H    0     0                       0.1239208    0.00016   100%     -    0s
H    0     0                       0.1102729    0.00016   100%     -    0s
     0     0    0.02628    0   18    0.11027    0.02628  76.2%     -    0s
     0     0    0.02628    0   11    0.11027    0.02628  76.2%     -    0s
     0     0 infeasible    0         0.11027    0.11027  0.00%     -    1s

Cutting planes:
  Cover: 4
  Implied bound: 2
  Clique: 1
  MIR: 3
  Flow cover: 3
  Flow path: 5
  Network: 1
  Relax-and-lift: 1

Explored 1 nodes (2601 simplex iterations) in 1.10 seconds (1.09 work units)
Thread count was 18 (of 18 available processors)

Solution count 2: 0.110273 0.123921 

Optimal solution found (tolerance 1.00e-04)
Best objective 1.102729136317e-01, best bound 1.102729136317e-01, gap 0.0000%
